benchmarks/regr3.cnf
p cnf 7 7
-4 2 0
-3 5 0
-1 -2 6 0
-5 -6 0
-7 1 0
-7 3 0
4 0
