benchmarks/regr3.out
c SaDiCaL SAT Solver
c Copyright (C) 2018 by Armin Biere JKU
c
c Version 00n 481e664a7ffa9a307d3a0dad517daf5dde1989ef
c Compiler Apple clang version 15.0.0 (clang-1500.3.9.4)
c Options gcc -Wall -O3 -DNDEBUG -DNLOG
c proof path 'tests/regr3.prf'
c
c all options have default values
c
c parsing 'tests/regr3.cnf'
c found 'p cnf 7 7' header
c parsed DIMACS in 0.00 seconds
c 
c
c   time      reduced redundant irredundant
c       space  restarts glue   variables
c           level conflicts size remaining
c
c s 0.00 0.0 0.0 0 0 0 0 0.0 0.0 5 5 71%
c s 0.00 0.0 0.0 0 0 0 0 0.0 0.0 3 4 57%
c s 0.00 0.0 0.0 0 0 0 0 0.0 0.0 2 3 43%
c s 0.00 0.0 0.0 0 0 0 0 0.0 0.0 1 2 29%
c s 0.00 0.0 0.0 0 0 0 0 0.0 0.0 0 1 14%
c 1 0.00 0.0 0.0 0 0 0 0 0.0 0.0 0 0 0%
c
s SATISFIABLE
v -1 2 -3 4 -5 6 -7 0
c
c simplifications:             5           0  conflicts/simplification  100%
c reductions:                  0           0  conflicts/reduction       100%
c restarts:                    0           0  conflicts/restart         100%
c conflicts:                   0           0  conflicts/sec             100%
c decisions:                   0           0  decisions/sec             100%
c propagations:                7         0.0  millions/sec              100%
c
c pure:                        5         100% of look-aheads
c look-ahead:                  5           0% of outer decisions          0%
c pruned:                      0         100% of outer conflicts        100%
c generated reducts:           0         100% satisfiable
c average size:                0         100% of all clauses
c pruning failed:              0         100% per reduct
c filter checks:               0         100% of outer satisfied clauses
c average filtered:          0.0         100% per reduct
c assumed literals:            0         0.0  per filter check
c
c collected clauses:        0.00 MB      100% of allocated clauses      100%
c allocated clauses:        0.00 MB        7% of allocated memory       100%
c maximum heap:             0.00 MB        0% of resident set size       63%
c
c looking:                  0.00 sec       0% of process time
c filtering:                0.00 sec       0% of process time
c pruning:                  0.00 sec       0% of process time
c simplifying:              0.00 sec       1% of process time
c
c resident set size:     1072.00 MB
c total process time:       0.00 sec
